Route #1: 0 15 53 48 12 13 14 56 20 7 0
Route #2: 0 38 19 18 30 1 11 25 31 34 60 5 0
Route #3: 0 49 35 33 26 55 59 0
Route #4: 0 40 6 57 50 17 58 0
Route #5: 0 51 10 8 43 29 32 61 28 0
Route #6: 0 52 2 44 22 37 16 36 0
Route #7: 0 45 47 24 3 42 0
Route #8: 0 54 9 4 21 41 23 27 39 46 0
Cost 1414:
